1837
77 13 50 46 2 53 64 56 39 93 57 22 76 78 10 63 66 8 32 82 25 89 98 65 97 19 69 79 96 5 86 48 45 94 40 11 42 14 15 1 7 58 68 73 38 3 95 36 18 84 37 26 27 83 52 12 4 91 74 9 88 55 21 71 99 51 6 59 44 31 67 47 60 16 43 85 17 72 29 20 34 49 41 70 28 54 24 33 30 35 87 23 61 90 75 62 81 80 92 
